NAME: concorde30
TYPE: TSP
COMMENT: Generated by CCutil_writetsplib
COMMENT: Write called for by Concorde GUI
DIMENSION: 30
EDGE_WEIGHT_TYPE: EUC_2D
NODE_COORD_SECTION
1 49.000000 46.000000
2 93.000000 65.000000
3 35.000000 97.000000
4 96.000000 68.000000
5 70.000000 44.000000
6 89.000000 36.000000
7 18.000000 46.000000
8 63.000000 44.000000
9 99.000000 24.000000
10 13.000000 70.000000
11 33.000000 41.000000
12 87.000000 33.000000
13 78.000000 57.000000
14 83.000000 97.000000
15 60.000000 66.000000
16 49.000000 63.000000
17 78.000000 86.000000
18 89.000000 78.000000
19 20.000000 84.000000
20 31.000000 9.000000
21 33.000000 46.000000
22 20.000000 60.000000
23 23.000000 92.000000
24 27.000000 99.000000
25 59.000000 3.000000
26 25.000000 58.000000
27 12.000000 74.000000
28 23.000000 25.000000
29 60.000000 30.000000
30 21.000000 74.000000
